1 1 -2 0
1 3 1 0
1 3 -4 0
1 5 6 0
1 -7 -8 0
1 7 -5 0
1 -8 -9 0
1 4 -1 0
1 10 -11 0
1 -6 12 0
1 -13 14 0
1 -15 16 0
1 16 -17 0
1 16 18 0
1 19 20 0
1 21 22 0
1 -23 -24 0
1 -23 -25 0
1 -24 13 0
1 -26 12 0
1 -27 28 0
1 25 -29 0
1 -25 -28 0
1 30 31 0
1 32 33 0
1 -34 -35 0
1 -36 37 0
1 -35 36 0
1 -35 -32 0
1 -35 -30 0
1 33 34 0
1 31 -38 0
1 31 -39 0
1 40 -41 0
1 -41 -8 0
1 -41 -35 0
1 37 -42 0
1 37 -43 0
1 -44 -34 0
1 -45 -37 0
1 -45 46 0
1 -45 38 0
1 -43 -47 0
1 22 20 0
1 -22 -48 0
1 -49 -50 0
1 49 15 0
1 -49 -51 0
1 52 37 0
1 52 53 0
1 52 -9 0
1 -48 -49 0
1 48 -9 0
1 42 -22 0
1 42 -54 0
1 -42 -55 0
1 56 -50 0
1 18 13 0
1 57 58 0
1 -57 59 0
1 -57 48 0
1 50 53 0
1 50 -2 0
1 60 61 0
1 -62 -53 0
1 62 -56 0
1 -28 -25 0
1 63 -59 0
1 59 -64 0
1 65 66 0
1 65 -28 0
1 58 67 0
1 -66 68 0
1 69 70 0
1 69 71 0
1 72 66 0
1 68 -73 0
1 -68 74 0
1 -29 -66 0
1 75 76 0
1 77 -78 0
1 79 -80 0
1 -79 -39 0
1 -81 -82 0
1 83 -84 0
1 -83 -85 0
1 86 80 0
1 -39 -33 0
1 -39 87 0
1 -88 -89 0
1 90 81 0
1 -90 91 0
1 82 92 0
1 -93 -94 0
1 -87 -95 0
1 -87 -96 0
1 97 -98 0
1 -98 -47 0
1 -98 99 0
1 92 100 0
1 91 -97 0
1 91 -90 0
1 -101 -82 0
1 102 -103 0
1 47 42 0
1 47 -102 0
1 -54 -104 0
1 54 -42 0
1 -54 92 0
1 -55 105 0
1 -106 107 0
1 108 -94 0
1 104 -100 0
1 -104 109 0
1 -109 -104 0
1 109 -54 0
1 109 55 0
1 110 -108 0
1 111 -112 0
1 46 111 0
1 67 113 0
1 -61 58 0
1 61 -114 0
1 -61 -71 0
1 115 116 0
1 117 -118 0
1 117 114 0
1 119 73 0
1 119 -120 0
1 119 117 0
1 -121 -122 0
1 121 -123 0
1 123 121 0
1 73 -58 0
1 -73 -114 0
1 124 -58 0
1 -125 -126 0
1 125 -116 0
1 127 70 0
1 -118 -128 0
1 118 129 0
1 -130 115 0
1 -130 131 0
1 -130 60 0
1 132 133 0
1 -132 134 0
1 132 73 0
1 -132 -131 0
1 129 126 0
1 135 136 0
1 -135 137 0
1 138 -135 0
1 -137 -136 0
1 137 -139 0
1 -137 -59 0
1 136 140 0
1 136 141 0
1 -142 -126 0
1 142 -143 0
1 -142 -144 0
1 126 142 0
1 -145 -146 0
1 145 -147 0
1 -139 148 0
1 -146 149 0
1 -150 151 0
1 -76 -152 0
1 153 154 0
1 -153 155 0
1 -156 157 0
1 158 -78 0
1 158 159 0
1 160 -161 0
1 161 83 0
1 -161 153 0
1 162 83 0
1 -162 -90 0
1 -162 -163 0
1 -164 -161 0
1 -164 -78 0
1 163 -165 0
1 -163 166 0
1 163 167 0
1 163 155 0
1 -96 79 0
1 -96 86 0
1 -96 -168 0
1 -80 -165 0
1 169 -170 0
1 -169 -89 0
1 171 -170 0
1 172 -173 0
1 172 -174 0
1 -175 -171 0
1 -175 -176 0
1 177 -95 0
1 177 178 0
1 -95 -87 0
1 -95 -84 0
1 -173 -54 0
1 173 -172 0
1 173 -179 0
1 174 -173 0
1 174 91 0
1 180 -181 0
1 -84 182 0
1 -183 95 0
1 -100 184 0
1 185 98 0
1 -185 -180 0
1 -185 109 0
1 186 -187 0
1 -181 -188 0
1 184 -100 0
1 -184 189 0
1 -184 -190 0
1 113 -106 0
1 -113 188 0
1 113 -191 0
1 -113 -108 0
1 -192 -187 0
1 192 -109 0
1 -192 61 0
1 192 193 0
1 194 -195 0
1 -196 197 0
1 -198 -199 0
1 -198 200 0
1 -191 186 0
1 -201 -194 0
1 201 -188 0
1 201 -91 0
1 -188 -202 0
1 -188 181 0
1 122 -191 0
1 122 200 0
1 122 203 0
1 122 204 0
1 -122 123 0
1 -200 -203 0
1 200 204 0
1 -205 -120 0
1 203 -206 0
1 203 -122 0
1 197 -206 0
1 -197 -122 0
1 -195 -207 0
1 -134 -121 0
1 134 119 0
1 -120 -208 0
1 -120 123 0
1 -209 -135 0
1 210 -205 0
1 -210 138 0
1 -211 -212 0
1 211 -213 0
1 -211 214 0
1 212 210 0
1 215 -105 0
1 215 216 0
1 -217 131 0
1 -217 127 0
1 217 -218 0
1 -131 -130 0
1 219 -133 0
1 219 220 0
1 -219 -144 0
1 221 222 0
1 221 223 0
1 218 219 0
1 -218 131 0
1 224 -128 0
1 224 150 0
1 -143 -133 0
1 143 136 0
1 -143 -150 0
1 225 226 0
1 -227 150 0
1 128 -228 0
1 128 229 0
1 128 -225 0
1 -220 143 0
1 220 -130 0
1 220 230 0
1 133 143 0
1 133 229 0
1 231 -232 0
1 -140 233 0
1 140 234 0
1 235 -236 0
1 237 238 0
1 -237 -239 0
1 -237 229 0
1 -240 148 0
1 240 -241 0
1 149 -242 0
1 -243 -239 0
1 -243 -241 0
1 244 245 0
1 -244 -246 0
1 -244 247 0
1 -244 243 0
1 -152 248 0
1 -152 -249 0
1 152 -250 0
1 -152 251 0
1 252 -253 0
1 -252 254 0
1 253 255 0
1 253 256 0
1 251 -257 0
1 255 257 0
1 -255 252 0
1 157 258 0
1 -259 -260 0
1 259 -156 0
1 -259 -157 0
1 -159 -260 0
1 -159 156 0
1 -159 -258 0
1 -159 256 0
1 -260 -261 0
1 256 -262 0
1 -263 159 0
1 258 -264 0
1 167 256 0
1 167 163 0
1 -165 265 0
1 -262 -266 0
1 262 -163 0
1 -267 -268 0
1 -267 269 0
1 -269 165 0
1 269 176 0
1 269 -270 0
1 265 165 0
1 265 -264 0
1 266 265 0
1 176 271 0
1 272 -175 0
1 272 273 0
1 274 275 0
1 -274 276 0
1 274 277 0
1 -274 170 0
1 -275 269 0
1 -271 -278 0
1 -271 -279 0
1 271 -274 0
1 -273 -271 0
1 -273 -280 0
1 -273 -281 0
1 282 272 0
1 283 275 0
1 -281 -183 0
1 -281 284 0
1 278 -284 0
1 182 276 0
1 182 285 0
1 182 -286 0
1 -182 183 0
1 -182 273 0
1 284 276 0
1 284 -287 0
1 284 288 0
1 -284 -278 0
1 -276 -289 0
1 277 -290 0
1 -288 291 0
1 -292 -293 0
1 190 294 0
1 286 -178 0
1 286 189 0
1 -286 190 0
1 -293 289 0
1 293 182 0
1 285 295 0
1 -296 291 0
1 -296 297 0
1 189 -187 0
1 -298 286 0
1 202 -286 0
1 202 294 0
1 -202 299 0
1 -300 301 0
1 -302 -301 0
1 302 -303 0
1 302 -190 0
1 297 -304 0
1 297 202 0
1 294 298 0
1 294 -305 0
1 -301 208 0
1 -301 306 0
1 208 120 0
1 208 -191 0
1 208 -195 0
1 -207 307 0
1 -306 207 0
1 -306 -301 0
1 306 308 0
1 -306 309 0
1 310 -311 0
1 -310 179 0
1 311 301 0
1 -311 -312 0
1 -311 -310 0
1 313 -314 0
1 313 315 0
1 -313 -306 0
1 -316 317 0
1 -316 299 0
1 -316 -318 0
1 -316 -215 0
1 -319 -198 0
1 -319 320 0
1 -319 -316 0
1 320 -321 0
1 -320 313 0
1 307 -312 0
1 -307 -316 0
1 214 322 0
1 -214 218 0
1 323 312 0
1 226 -225 0
1 322 324 0
1 322 214 0
1 -325 226 0
1 -326 327 0
1 -326 -226 0
1 318 -328 0
1 -329 151 0
1 329 -330 0
1 329 221 0
1 -331 -328 0
1 331 325 0
1 213 211 0
1 213 -230 0
1 332 -333 0
1 -330 -334 0
1 216 -335 0
1 -229 213 0
1 -336 -237 0
1 336 -213 0
1 -336 332 0
1 336 337 0
1 -338 -223 0
1 -223 339 0
1 -223 -340 0
1 -341 -342 0
1 337 341 0
1 -239 -335 0
1 -239 -235 0
1 236 -343 0
1 236 -344 0
1 245 247 0
1 -247 345 0
1 346 347 0
1 346 246 0
1 343 -348 0
1 343 239 0
1 -343 -349 0
1 -350 351 0
1 -352 -339 0
1 352 349 0
1 -352 -340 0
1 -352 -338 0
1 353 244 0
1 353 -243 0
1 246 -353 0
1 246 -244 0
1 348 -354 0
1 348 -346 0
1 -345 355 0
1 345 -353 0
1 345 -235 0
1 238 237 0
1 -356 -357 0
1 -358 359 0
1 -360 -358 0
1 360 359 0
1 -361 348 0
1 -357 -362 0
1 -363 -364 0
1 -365 -366 0
1 -367 -368 0
1 369 370 0
1 -371 -372 0
1 371 365 0
1 257 373 0
1 -374 375 0
1 376 -375 0
1 -368 367 0
1 377 -368 0
1 -366 -378 0
1 -366 -257 0
1 379 -257 0
1 380 -376 0
1 -381 366 0
1 -381 382 0
1 381 377 0
1 -381 -383 0
1 384 -385 0
1 -386 -387 0
1 -388 387 0
1 -388 -382 0
1 385 387 0
1 -389 390 0
1 -389 391 0
1 392 266 0
1 392 393 0
1 -394 -265 0
1 -395 -274 0
1 -395 -396 0
1 -397 398 0
1 399 392 0
1 -400 -401 0
1 393 402 0
1 403 -404 0
1 -403 405 0
1 406 -265 0
1 406 -283 0
1 -270 398 0
1 270 -407 0
1 401 282 0
1 401 408 0
1 -409 408 0
1 -409 283 0
1 407 -410 0
1 -407 290 0
1 407 -409 0
1 -411 -290 0
1 -398 396 0
1 290 -407 0
1 290 -271 0
1 -290 283 0
1 412 -277 0
1 -412 408 0
1 413 -414 0
1 415 277 0
1 -415 408 0
1 268 -416 0
1 268 295 0
1 -417 268 0
1 414 416 0
1 414 -412 0
1 408 401 0
1 408 -266 0
1 -287 293 0
1 289 285 0
1 -289 -417 0
1 289 -418 0
1 295 285 0
1 -295 -417 0
1 -419 420 0
1 419 -421 0
1 -419 418 0
1 -422 -423 0
1 -422 413 0
1 -422 304 0
1 -421 424 0
1 421 425 0
1 421 419 0
1 -418 415 0
1 -426 -427 0
1 -426 -428 0
1 -305 285 0
1 305 -293 0
1 423 429 0
1 -304 -423 0
1 420 315 0
1 420 -430 0
1 -427 305 0
1 431 432 0
1 -431 -304 0
1 -430 300 0
1 315 302 0
1 433 434 0
1 -429 434 0
1 435 436 0
1 435 -429 0
1 435 437 0
1 438 433 0
1 438 315 0
1 438 439 0
1 -440 -214 0
1 312 303 0
1 -441 307 0
1 -442 -436 0
1 442 -434 0
1 303 443 0
1 -303 442 0
1 -444 445 0
1 -446 326 0
1 446 -320 0
1 446 230 0
1 446 -447 0
1 -448 -307 0
1 449 450 0
1 -449 -442 0
1 328 -451 0
1 -328 -318 0
1 -447 452 0
1 -447 -436 0
1 447 453 0
1 -453 -448 0
1 -454 -448 0
1 -455 456 0
1 455 -454 0
1 457 451 0
1 457 -458 0
1 457 -447 0
1 -334 458 0
1 451 -328 0
1 451 324 0
1 -458 -342 0
1 -450 -459 0
1 450 -460 0
1 -461 -449 0
1 -461 -462 0
1 -461 463 0
1 -335 -330 0
1 -335 -458 0
1 -335 464 0
1 465 -466 0
1 465 -341 0
1 467 -322 0
1 -464 -468 0
1 464 463 0
1 -469 470 0
1 351 341 0
1 340 -341 0
1 340 223 0
1 471 465 0
1 -472 465 0
1 472 471 0
1 -472 -473 0
1 466 -474 0
1 475 476 0
1 -477 -352 0
1 477 362 0
1 477 478 0
1 -477 479 0
1 349 479 0
1 349 346 0
1 480 481 0
1 -473 482 0
1 -483 355 0
1 483 -349 0
1 -483 482 0
1 -482 -484 0
1 479 -485 0
1 481 -486 0
1 481 485 0
1 -487 -488 0
1 487 345 0
1 -487 -357 0
1 -489 490 0
1 490 491 0
1 -490 -492 0
1 493 -355 0
1 494 484 0
1 -495 -359 0
1 -496 -491 0
1 -496 497 0
1 497 498 0
1 499 495 0
1 -499 -490 0
1 -499 -500 0
1 -501 -502 0
1 -501 499 0
1 491 -490 0
1 491 503 0
1 -502 -499 0
1 504 505 0
1 -504 -502 0
1 -500 499 0
1 506 501 0
1 506 500 0
1 -507 496 0
1 508 497 0
1 508 354 0
1 -498 500 0
1 -498 -502 0
1 498 -509 0
1 -505 -504 0
1 510 249 0
1 510 -511 0
1 -512 513 0
1 514 515 0
1 -514 -513 0
1 -516 373 0
1 513 -512 0
1 -513 -516 0
1 -513 -517 0
1 -513 -518 0
1 -513 364 0
1 -513 -373 0
1 -515 514 0
1 -511 -510 0
1 -511 -515 0
1 511 -519 0
1 -373 -516 0
1 -520 516 0
1 -520 -521 0
1 520 -373 0
1 518 522 0
1 518 -523 0
1 -518 -524 0
1 523 525 0
1 523 526 0
1 -527 -518 0
1 527 391 0
1 528 -529 0
1 -530 518 0
1 531 518 0
1 531 383 0
1 378 370 0
1 378 -528 0
1 -390 -532 0
1 -533 534 0
1 -370 391 0
1 535 386 0
1 -387 -270 0
1 387 -532 0
1 -387 -385 0
1 -404 532 0
1 -536 -537 0
1 -538 -539 0
1 538 535 0
1 539 404 0
1 -540 -387 0
1 540 -541 0
1 -532 -387 0
1 532 -542 0
1 -543 403 0
1 402 -544 0
1 545 -546 0
1 -545 -547 0
1 545 548 0
1 -549 -546 0
1 549 550 0
1 -549 -398 0
1 549 -547 0
1 548 -551 0
1 548 -545 0
1 -537 -388 0
1 -537 536 0
1 -544 552 0
1 -544 542 0
1 -551 -398 0
1 551 -553 0
1 551 396 0
1 -551 -548 0
1 554 546 0
1 554 -550 0
1 554 -555 0
1 556 -546 0
1 556 -537 0
1 -556 -419 0
1 -556 408 0
1 550 557 0
1 -558 -556 0
1 -558 549 0
1 -546 554 0
1 -546 545 0
1 546 -393 0
1 -553 559 0
1 -560 -559 0
1 560 -561 0
1 -561 562 0
1 410 560 0
1 -410 -563 0
1 562 411 0
1 -562 -556 0
1 -562 564 0
1 565 416 0
1 565 -425 0
1 -566 416 0
1 -566 396 0
1 567 568 0
1 -567 427 0
1 -569 422 0
1 569 427 0
1 -564 563 0
1 564 -427 0
1 564 -570 0
1 563 424 0
1 563 -571 0
1 568 -569 0
1 -568 439 0
1 571 560 0
1 572 -563 0
1 572 573 0
1 439 574 0
1 -575 -312 0
1 -575 -576 0
1 -575 577 0
1 -578 568 0
1 -574 579 0
1 574 578 0
1 -574 -563 0
1 -574 -564 0
1 424 580 0
1 424 -563 0
1 437 -581 0
1 -445 -582 0
1 -445 583 0
1 584 -585 0
1 -586 587 0
1 -586 445 0
1 -586 588 0
1 583 589 0
1 590 -585 0
1 -590 445 0
1 591 -592 0
1 591 -593 0
1 -591 -584 0
1 594 595 0
1 -594 596 0
1 597 -598 0
1 -597 -599 0
1 597 594 0
1 597 -591 0
1 -597 -460 0
1 -592 -599 0
1 592 -600 0
1 -596 595 0
1 -596 601 0
1 -595 456 0
1 -595 -602 0
1 -595 -603 0
1 595 591 0
1 -600 -597 0
1 -600 604 0
1 -462 605 0
1 -599 452 0
1 460 -606 0
1 -460 601 0
1 -604 600 0
1 -604 -594 0
1 -604 -607 0
1 -608 609 0
1 -610 609 0
1 -611 -351 0
1 611 -461 0
1 612 -606 0
1 612 -613 0
1 614 -468 0
1 -607 -615 0
1 -607 -616 0
1 607 476 0
1 607 617 0
1 -452 599 0
1 606 618 0
1 606 -607 0
1 -613 619 0
1 -613 611 0
1 613 -460 0
1 615 -620 0
1 615 621 0
1 -615 460 0
1 478 -464 0
1 -622 -623 0
1 -624 -623 0
1 -618 459 0
1 -618 466 0
1 -625 -614 0
1 -625 626 0
1 623 618 0
1 -623 626 0
1 -486 355 0
1 486 -471 0
1 -486 -470 0
1 486 -481 0
1 -627 481 0
1 485 -628 0
1 -629 630 0
1 629 -628 0
1 -629 -631 0
1 -632 633 0
1 630 634 0
1 630 -635 0
1 -630 -636 0
1 470 629 0
1 484 633 0
1 -484 -474 0
1 484 626 0
1 -637 474 0
1 -638 628 0
1 -639 631 0
1 -639 640 0
1 -628 -641 0
1 640 639 0
1 640 -642 0
1 474 629 0
1 -641 -491 0
1 641 -643 0
1 -641 -644 0
1 645 628 0
1 -645 646 0
1 -645 -647 0
1 648 -649 0
1 647 -650 0
1 -647 -651 0
1 647 643 0
1 -646 645 0
1 -652 641 0
1 652 -481 0
1 -652 -653 0
1 654 -491 0
1 -654 655 0
1 -654 498 0
1 656 -647 0
1 -656 657 0
1 -656 -498 0
1 651 498 0
1 655 658 0
1 659 -660 0
1 659 -661 0
1 662 658 0
1 -662 645 0
1 -661 659 0
1 -661 663 0
1 -664 -659 0
1 -664 -665 0
1 664 657 0
1 -666 -667 0
1 668 669 0
1 -668 670 0
1 663 -671 0
1 -672 -651 0
1 -672 661 0
1 -673 -670 0
1 -674 675 0
1 -669 -665 0
1 669 676 0
1 -669 -675 0
1 -675 -677 0
1 -675 -674 0
1 678 -674 0
1 678 -669 0
1 -665 -673 0
1 -679 680 0
1 679 681 0
1 -682 680 0
1 682 -514 0
1 -683 684 0
1 680 -522 0
1 -681 679 0
1 685 -686 0
1 685 687 0
1 -688 373 0
1 -521 515 0
1 -521 511 0
1 -689 680 0
1 689 690 0
1 522 691 0
1 522 -518 0
1 -691 -521 0
1 -692 691 0
1 693 -682 0
1 694 689 0
1 695 696 0
1 -517 -697 0
1 -517 372 0
1 -517 513 0
1 698 691 0
1 698 -696 0
1 -698 -699 0
1 -700 -517 0
1 690 701 0
1 -697 -522 0
1 702 -698 0
1 -701 530 0
1 525 -703 0
1 -525 704 0
1 -705 -706 0
1 705 531 0
1 704 -707 0
1 -708 698 0
1 708 709 0
1 -708 710 0
1 -519 701 0
1 -711 -712 0
1 -710 713 0
1 710 712 0
1 -710 -714 0
1 -712 -715 0
1 -712 -716 0
1 -712 -529 0
1 717 718 0
1 719 529 0
1 -719 -720 0
1 541 -370 0
1 -541 -721 0
1 -541 540 0
1 -541 714 0
1 -534 540 0
1 -534 -714 0
1 -722 -723 0
1 722 724 0
1 724 725 0
1 726 -727 0
1 -728 729 0
1 728 -716 0
1 728 -730 0
1 728 -724 0
1 714 731 0
1 -542 -713 0
1 542 732 0
1 -542 -720 0
1 -555 733 0
1 727 -544 0
1 727 734 0
1 735 -727 0
1 -733 -730 0
1 725 730 0
1 552 -736 0
1 552 -547 0
1 737 -546 0
1 737 552 0
1 -737 537 0
1 559 738 0
1 -559 739 0
1 740 -546 0
1 -740 741 0
1 736 -555 0
1 -742 743 0
1 734 540 0
1 -744 742 0
1 744 -745 0
1 -746 -747 0
1 -741 -745 0
1 748 749 0
1 -750 751 0
1 -750 752 0
1 -750 748 0
1 753 -576 0
1 -753 -743 0
1 -576 754 0
1 -576 755 0
1 576 747 0
1 573 756 0
1 -757 -756 0
1 757 -573 0
1 -747 -758 0
1 -747 -759 0
1 747 760 0
1 -761 762 0
1 755 746 0
1 755 762 0
1 759 -763 0
1 -759 579 0
1 759 -764 0
1 -760 -765 0
1 760 -766 0
1 -760 767 0
1 768 585 0
1 769 573 0
1 764 -580 0
1 764 -770 0
1 -756 -771 0
1 756 -757 0
1 -772 -590 0
1 -772 -591 0
1 772 -762 0
1 772 -570 0
1 580 766 0
1 580 -773 0
1 -580 574 0
1 -770 -774 0
1 -770 -583 0
1 -589 -766 0
1 766 -589 0
1 -766 -775 0
1 -766 -772 0
1 766 -601 0
1 -766 588 0
1 767 -776 0
1 767 -760 0
1 765 -777 0
1 773 772 0
1 773 760 0
1 -603 -586 0
1 603 778 0
1 -588 774 0
1 -588 -779 0
1 780 781 0
1 -601 774 0
1 782 780 0
1 -782 582 0
1 -782 -617 0
1 -783 -589 0
1 -783 -782 0
1 778 -784 0
1 -602 595 0
1 -602 782 0
1 602 -785 0
1 609 587 0
1 786 -787 0
1 -785 -788 0
1 -785 601 0
1 587 786 0
1 587 789 0
1 -587 601 0
1 -781 790 0
1 -781 -583 0
1 -791 608 0
1 -789 -792 0
1 789 613 0
1 -792 793 0
1 -792 -794 0
1 -792 -795 0
1 -796 -797 0
1 796 -620 0
1 -619 794 0
1 -798 -606 0
1 793 797 0
1 793 -799 0
1 -793 -800 0
1 -793 -616 0
1 -793 801 0
1 -802 -803 0
1 801 -789 0
1 -801 -604 0
1 -804 -805 0
1 -804 -802 0
1 -804 798 0
1 -804 801 0
1 803 -806 0
1 803 807 0
1 -803 808 0
1 -803 795 0
1 626 804 0
1 -626 795 0
1 809 -804 0
1 -809 801 0
1 -636 -801 0
1 810 -811 0
1 -810 -809 0
1 -810 812 0
1 -810 636 0
1 -813 613 0
1 -814 815 0
1 814 816 0
1 -817 -818 0
1 -818 470 0
1 819 -649 0
1 -819 820 0
1 -821 822 0
1 -821 823 0
1 824 822 0
1 824 821 0
1 -824 -635 0
1 825 635 0
1 825 826 0
1 -825 816 0
1 -825 -817 0
1 826 811 0
1 826 -616 0
1 642 816 0
1 642 652 0
1 822 811 0
1 -827 828 0
1 829 634 0
1 829 -830 0
1 820 -829 0
1 -828 -829 0
1 828 831 0
1 -828 667 0
1 634 -829 0
1 634 832 0
1 -634 -642 0
1 -634 833 0
1 -834 -835 0
1 836 646 0
1 836 837 0
1 650 652 0
1 -831 838 0
1 -831 839 0
1 831 -840 0
1 831 -837 0
1 831 667 0
1 -667 -837 0
1 667 830 0
1 667 -841 0
1 842 829 0
1 830 -650 0
1 -830 -843 0
1 830 640 0
1 844 -833 0
1 -844 667 0
1 658 657 0
1 658 -653 0
1 845 840 0
1 846 -660 0
1 846 -674 0
1 846 -676 0
1 840 847 0
1 -840 -658 0
1 -840 -831 0
1 -840 848 0
1 -838 -845 0
1 -839 -831 0
1 839 646 0
1 -839 849 0
1 839 -676 0
1 839 845 0
1 653 -667 0
1 -850 -851 0
1 -850 852 0
1 852 853 0
1 847 854 0
1 854 850 0
1 -660 855 0
1 851 -856 0
1 851 846 0
1 851 -855 0
1 -857 -678 0
1 -858 -859 0
1 -858 854 0
1 858 860 0
1 861 862 0
1 860 863 0
1 -671 -858 0
1 -864 865 0
1 864 -858 0
1 -864 861 0
1 866 671 0
1 867 -858 0
1 867 868 0
1 -869 858 0
1 870 871 0
1 870 -872 0
1 873 -874 0
1 873 875 0
1 875 874 0
1 -872 -876 0
1 -877 -878 0
1 879 -880 0
1 879 875 0
1 -879 873 0
1 -879 -681 0
1 -874 -873 0
1 874 881 0
1 -871 882 0
1 878 883 0
1 -878 -884 0
1 -878 -877 0
1 687 -685 0
1 -687 694 0
1 885 886 0
1 -885 -517 0
1 -885 681 0
1 699 694 0
1 -882 886 0
1 -882 887 0
1 -882 888 0
1 889 -874 0
1 -889 687 0
1 880 -890 0
1 -881 891 0
1 886 882 0
1 -892 893 0
1 -890 686 0
1 894 -895 0
1 -894 -893 0
1 896 -897 0
1 888 898 0
1 -888 -882 0
1 888 699 0
1 887 -882 0
1 -899 897 0
1 -899 -887 0
1 -899 519 0
1 -900 901 0
1 -900 519 0
1 897 -902 0
1 895 -903 0
1 -904 -905 0
1 -904 693 0
1 901 -905 0
1 901 906 0
1 901 -907 0
1 901 894 0
1 -707 -908 0
1 723 -909 0
1 723 -910 0
1 911 690 0
1 911 -720 0
1 912 -913 0
1 -914 907 0
1 718 -915 0
1 -718 -911 0
1 720 542 0
1 731 -915 0
1 -731 -916 0
1 -917 728 0
1 -910 731 0
1 910 918 0
1 910 919 0
1 920 -921 0
1 -920 -918 0
1 922 718 0
1 -922 923 0
1 -922 -519 0
1 -730 -713 0
1 730 924 0
1 -730 923 0
1 919 -925 0
1 919 738 0
1 -919 916 0
1 -715 -926 0
1 -715 -927 0
1 -928 917 0
1 -924 929 0
1 -924 917 0
1 -916 930 0
1 -931 725 0
1 -931 -928 0
1 927 925 0
1 -927 931 0
1 -927 -733 0
1 932 -933 0
1 -932 -928 0
1 926 934 0
1 -933 935 0
1 933 -726 0
1 -936 927 0
1 -937 -938 0
1 743 -934 0
1 743 939 0
1 935 940 0
1 -935 -748 0
1 941 -748 0
1 -941 -573 0
1 -940 935 0
1 934 -942 0
1 934 943 0
1 -934 944 0
1 -945 946 0
1 -945 947 0
1 -945 -926 0
1 946 -948 0
1 -946 935 0
1 949 -950 0
1 751 951 0
1 952 -953 0
1 -952 -752 0
1 -954 955 0
1 -954 -942 0
1 951 956 0
1 951 957 0
1 950 -953 0
1 -950 -958 0
1 -953 -942 0
1 -762 -959 0
1 771 761 0
1 771 -752 0
1 -956 960 0
1 956 961 0
1 962 771 0
1 962 -942 0
1 -959 963 0
1 -752 -956 0
1 963 964 0
1 779 756 0
1 965 966 0
1 -965 -773 0
1 967 961 0
1 -967 -959 0
1 -967 968 0
1 -967 -969 0
1 -967 -970 0
1 961 971 0
1 961 -963 0
1 968 784 0
1 964 761 0
1 -972 973 0
1 -972 974 0
1 972 975 0
1 -972 779 0
1 -775 976 0
1 977 774 0
1 -977 767 0
1 -978 979 0
1 978 966 0
1 978 784 0
1 784 -978 0
1 -784 -776 0
1 976 -980 0
1 976 -978 0
1 -981 967 0
1 -969 982 0
1 -969 973 0
1 -980 776 0
1 983 976 0
1 984 -979 0
1 984 966 0
1 -985 787 0
1 -985 986 0
1 985 -789 0
1 -979 -987 0
1 -979 788 0
1 -979 -784 0
1 776 988 0
1 -776 -784 0
1 -776 -989 0
1 -777 990 0
1 -991 -987 0
1 -790 -986 0
1 788 -787 0
1 -788 -986 0
1 797 -992 0
1 -797 -993 0
1 -988 796 0
1 -994 797 0
1 -994 -808 0
1 -995 -984 0
1 795 -993 0
1 795 -996 0
1 808 995 0
1 -808 -997 0
1 -998 -635 0
1 -996 999 0
1 996 1000 0
1 1001 988 0
1 -1001 996 0
1 1001 -1000 0
1 1002 -1003 0
1 1002 -1004 0
1 1002 795 0
1 -1005 787 0
1 -1005 -1006 0
1 1007 1004 0
1 -1007 -813 0
1 -1008 -804 0
1 1008 803 0
1 -1009 -999 0
1 -1009 -813 0
1 999 807 0
1 -997 -811 0
1 -1010 1011 0
1 -816 -814 0
1 -816 -826 0
1 -816 -1012 0
1 811 -799 0
1 811 826 0
1 811 816 0
1 1013 -1014 0
1 -1013 1015 0
1 1016 841 0
1 805 -999 0
1 805 1017 0
1 807 -999 0
1 807 -1018 0
1 832 -1019 0
1 -832 -836 0
1 -832 -1020 0
1 1019 -1021 0
1 1019 805 0
1 -835 1022 0
1 835 -841 0
1 -841 -835 0
1 -1022 -833 0
1 1022 841 0
1 -812 832 0
1 -1014 -813 0
1 -1014 -1018 0
1 -1014 835 0
1 -1014 1023 0
1 815 1014 0
1 815 -1013 0
1 1024 828 0
1 1025 -1026 0
1 -1027 676 0
1 823 -1024 0
1 823 -1028 0
1 1029 841 0
1 1030 823 0
1 1030 -850 0
1 1030 -1031 0
1 -1032 1033 0
1 -1032 -839 0
1 -1034 -823 0
1 1034 1035 0
1 1036 -634 0
1 1036 -1037 0
1 -1036 1034 0
1 -1038 -1025 0
1 1039 -1040 0
1 -1039 -1041 0
1 856 -843 0
1 1041 -1032 0
1 -1041 1042 0
1 1033 -1032 0
1 1033 -1043 0
1 -1033 1044 0
1 1045 -1046 0
1 -865 866 0
1 865 848 0
1 -855 865 0
1 -1047 -1041 0
1 1047 -848 0
1 -1047 -864 0
1 1047 -1048 0
1 -848 -856 0
1 848 1049 0
1 1050 -1051 0
1 -849 1049 0
1 -849 1052 0
1 1053 -862 0
1 1054 -860 0
1 1055 -1056 0
1 -1055 -1057 0
1 1055 -1058 0
1 1059 848 0
1 -1051 -1060 0
1 -1051 867 0
1 1058 -1061 0
1 1058 -854 0
1 1062 -1058 0
1 1063 1064 0
1 -1064 1065 0
1 1066 867 0
1 -1067 1058 0
1 1067 -1068 0
1 -1069 -1070 0
1 1071 1072 0
1 1073 -1074 0
1 -1073 1069 0
1 1060 -1051 0
1 -1060 -1059 0
1 -1075 1065 0
1 1075 1076 0
1 1068 -1076 0
1 -1074 -1077 0
1 -1074 -1078 0
1 -1078 1074 0
1 -1079 1080 0
1 1079 1081 0
1 1077 -1071 0
1 1077 1080 0
1 -891 883 0
1 -891 1082 0
1 884 1083 0
1 884 -886 0
1 884 -1084 0
1 -1085 896 0
1 1085 1084 0
1 -1086 1083 0
1 1086 891 0
1 1083 -1087 0
1 1083 -1085 0
1 -1088 -1089 0
1 -1090 1091 0
1 -1087 1092 0
1 1091 1093 0
1 1093 871 0
1 1093 -1094 0
1 -1092 -1095 0
1 1089 1096 0
1 -1097 904 0
1 -1098 887 0
1 1098 1097 0
1 -1098 -1091 0
1 -906 1093 0
1 -906 -723 0
1 1099 -913 0
1 -1099 1100 0
1 1099 1097 0
1 -1101 906 0
1 1102 1103 0
1 -1102 1104 0
1 -1105 1104 0
1 -1105 -1106 0
1 905 -902 0
1 902 -904 0
1 -913 1107 0
1 -1107 1108 0
1 1109 887 0
1 -1109 -1110 0
1 1111 -1112 0
1 1111 905 0
1 -921 1113 0
1 -923 -909 0
1 -923 914 0
1 -923 730 0
1 -923 1107 0
1 1114 -1115 0
1 1110 -1107 0
1 -1116 -1114 0
1 903 1116 0
1 903 1117 0
1 -903 -1118 0
1 -1119 923 0
1 -1119 1120 0
1 -929 -1116 0
1 918 1121 0
1 1122 -1123 0
1 -930 1122 0
1 -930 1116 0
1 930 -1123 0
1 1115 1124 0
1 -1125 -918 0
1 -1125 914 0
1 939 -715 0
1 939 -937 0
1 -1126 715 0
1 1126 -1127 0
1 1128 1127 0
1 1127 1129 0
1 -1123 -1126 0
1 1130 -1131 0
1 938 -946 0
1 938 -936 0
1 -938 -949 0
1 -938 -937 0
1 1132 -946 0
1 -1132 936 0
1 1132 937 0
1 1133 1132 0
1 1134 -1135 0
1 -1136 938 0
1 -944 -1137 0
1 944 1131 0
1 -1137 -1138 0
1 1137 940 0
1 -960 953 0
1 1139 955 0
1 -1139 1140 0
1 -1141 -944 0
1 -1142 -1143 0
1 1142 -1144 0
1 -1145 -1146 0
1 -1145 1147 0
1 1140 -943 0
1 -1140 1148 0
1 1140 -1149 0
1 -970 1149 0
1 -1150 1151 0
1 -1150 -1152 0
1 943 -960 0
1 943 -1153 0
1 943 1140 0
1 943 1144 0
1 1154 -955 0
1 1154 -1155 0
1 -1154 -1156 0
1 948 -1140 0
1 -974 1157 0
1 -974 964 0
1 -974 -1158 0
1 974 -1148 0
1 1158 -1159 0
1 -1148 982 0
1 -1148 1140 0
1 1148 1160 0
1 1148 -1161 0
1 -1148 -1162 0
1 1163 -1140 0
1 -1163 1164 0
1 -1159 -1165 0
1 -1160 -964 0
1 1157 962 0
1 -1166 1167 0
1 1168 -1160 0
1 -1169 1170 0
1 1171 -1166 0
1 990 -788 0
1 -990 969 0
1 -990 -1172 0
1 992 -797 0
1 971 -992 0
1 -1172 968 0
1 1173 1174 0
1 -1173 1175 0
1 975 -992 0
1 975 -1176 0
1 -987 -1177 0
1 -1178 -1179 0
1 -1178 1175 0
1 1180 1181 0
1 -1180 -1182 0
1 1183 -1184 0
1 -1177 -1184 0
1 1181 1185 0
1 -1179 -1186 0
1 1004 1007 0
1 1003 995 0
1 -1006 1187 0
1 1006 1183 0
1 -1006 1188 0
1 -1187 -1189 0
1 -1187 -1190 0
1 1187 -1191 0
1 1182 -1192 0
1 -1182 1193 0
1 1190 -1180 0
1 1188 -1194 0
1 -1188 -1195 0
1 1000 -1010 0
1 1000 -1002 0
1 -1000 -996 0
1 -1196 -1197 0
1 -1192 989 0
1 1198 -1189 0
1 1198 1021 0
1 -1198 1196 0
1 1199 1200 0
1 -1199 -1201 0
1 -1199 -1191 0
1 1202 -1189 0
1 1203 1189 0
1 1204 1203 0
1 -1205 1197 0
1 -1205 1200 0
1 1197 -1005 0
1 -1197 -1206 0
1 -1018 807 0
1 -1017 1207 0
1 1017 805 0
1 1017 833 0
1 1208 1209 0
1 -1023 1210 0
1 1211 -1212 0
1 -1213 -1208 0
1 1213 1018 0
1 1214 -1215 0
1 1214 -1211 0
1 1214 -1216 0
1 -1217 1215 0
1 -1217 1218 0
1 1216 -1214 0
1 1210 1219 0
1 1210 -1220 0
1 -1221 1222 0
1 1221 -1212 0
1 -1221 -1217 0
1 -1223 1207 0
1 -1223 -1023 0
1 1220 1215 0
1 1220 823 0
1 -1220 1218 0
1 -1215 -1220 0
1 -1224 1217 0
1 -1224 1225 0
1 -1226 -1227 0
1 1226 1217 0
1 1226 1225 0
1 -1218 -1220 0
1 -1218 -1227 0
1 1228 -1229 0
1 -1228 -1230 0
1 -1231 1232 0
1 -1231 -1233 0
1 1234 -1046 0
1 -1234 -823 0
1 1230 1057 0
1 -1230 -1235 0
1 -1236 -1227 0
1 1229 -1225 0
1 -1042 -843 0
1 1042 1054 0
1 1057 -1033 0
1 1057 1230 0
1 -1237 -849 0
1 1237 -1238 0
1 1239 -1233 0
1 1239 1230 0
1 -1233 1049 0
1 -1037 1237 0
1 1232 1037 0
1 1232 1043 0
1 1232 -1235 0
1 1240 1241 0
1 1240 1242 0
1 1049 1053 0
1 -1049 -1233 0
1 -1070 1069 0
1 1070 1063 0
1 -1243 -1061 0
1 1243 1240 0
1 1242 -1244 0
1 -1242 1061 0
1 -1242 -1237 0
1 -1241 -1244 0
1 1241 -1245 0
1 1061 1246 0
1 -1247 1076 0
1 1248 -1249 0
1 1104 1102 0
1 1104 -1250 0
1 1096 902 0
1 1103 1251 0
1 -1103 1252 0
1 -1103 1102 0
1 -1106 -1105 0
1 1106 -1253 0
1 1254 -1103 0
1 1254 1104 0
1 1254 1255 0
1 -1254 1256 0
1 -1251 -1257 0
1 1251 1255 0
1 -1258 -1105 0
1 1258 1253 0
1 -1258 1259 0
1 1258 1102 0
1 -1256 1260 0
1 -1256 1102 0
1 1256 -1261 0
1 -1255 1262 0
1 -1259 -1263 0
1 -1264 -1263 0
1 -1264 -1265 0
1 1264 -1255 0
1 -1253 1263 0
1 1260 1263 0
1 1260 1255 0
1 -1260 1256 0
1 1266 1267 0
1 1268 1266 0
1 -1268 -1262 0
1 -1268 -1269 0
1 -1270 -1108 0
1 1265 -1270 0
1 1265 1113 0
1 -1265 -1259 0
1 1265 1100 0
1 -1265 1108 0
1 1100 -1099 0
1 -1267 1271 0
1 1267 -1268 0
1 1269 -1266 0
1 -1269 -1262 0
1 1262 -1112 0
1 1117 -1108 0
1 1272 1100 0
1 -1273 -1272 0
1 -1274 1275 0
1 -1274 -1117 0
1 1275 1276 0
1 1277 1108 0
1 -1278 -1279 0
1 -1278 1115 0
1 1280 1279 0
1 1280 -1281 0
1 -1280 -1130 0
1 -1282 -1283 0
1 -1284 -1285 0
1 -1284 -1272 0
1 -1286 1287 0
1 1286 1285 0
1 1281 -1280 0
1 -1281 -1277 0
1 -1131 1128 0
1 1138 -1134 0
1 1135 1283 0
1 -1135 1136 0
1 -1288 1146 0
1 -1124 1289 0
1 -1290 1291 0
1 -1290 1292 0
1 1292 1131 0
1 -1146 -1124 0
1 -1146 1136 0
1 1293 -1294 0
1 1293 1295 0
1 1293 -1296 0
1 1293 1297 0
1 1295 -1155 0
1 1295 -1283 0
1 1297 1135 0
1 1294 1291 0
1 -1294 -1298 0
1 1294 1299 0
1 -1300 -1293 0
1 1300 -1130 0
1 1156 1296 0
1 -1301 -1295 0
1 -1301 1154 0
1 -1301 -1302 0
1 -1155 -1296 0
1 -1155 -1143 0
1 -1155 1303 0
1 1303 1304 0
1 -1303 -1305 0
1 -1306 1156 0
1 1306 1289 0
1 1305 -1307 0
1 1305 1301 0
1 1302 -1308 0
1 -1153 943 0
1 1153 1309 0
1 1310 1143 0
1 1309 -1307 0
1 -1304 -1311 0
1 1304 -1307 0
1 1312 1313 0
1 -1312 -1310 0
1 -1314 1169 0
1 1165 1314 0
1 1165 1315 0
1 -1316 1167 0
1 1152 1317 0
1 1318 1317 0
1 -1318 -943 0
1 1318 -1319 0
1 1318 1307 0
1 1315 -1320 0
1 -1315 -1321 0
1 -1317 1166 0
1 1317 -975 0
1 -1174 -1152 0
1 1174 1168 0
1 -1175 975 0
1 1322 -1318 0
1 -1322 1164 0
1 1162 1323 0
1 1162 -1324 0
1 -1162 1175 0
1 1325 1317 0
1 -1325 1326 0
1 -1164 1327 0
1 -1164 1175 0
1 -1328 -1181 0
1 -1328 1179 0
1 -1328 -1004 0
1 -1329 -1323 0
1 -1330 1157 0
1 1330 -1331 0
1 -1330 1184 0
1 1330 1175 0
1 1332 1333 0
1 -1184 1330 0
1 1184 -1334 0
1 -1335 -1177 0
1 1335 1184 0
1 1331 -1190 0
1 1331 -1186 0
1 1331 -1336 0
1 1331 1337 0
1 1331 1188 0
1 1338 -1339 0
1 -1338 1331 0
1 1339 -1335 0
1 -1336 -1335 0
1 -1340 -1184 0
1 -1193 -1341 0
1 -1342 -1195 0
1 1341 -1194 0
1 -1341 1200 0
1 -1337 -1343 0
1 1337 -1344 0
1 1185 -1338 0
1 -1185 -1345 0
1 1185 1346 0
1 -1186 -1338 0
1 -1200 -1189 0
1 1200 -1341 0
1 -1200 -1191 0
1 1206 1197 0
1 1347 1348 0
1 -1349 -1350 0
1 1349 -1182 0
1 1351 -1342 0
1 1352 -1353 0
1 -1352 -1354 0
1 -1195 1355 0
1 1195 1352 0
1 -1195 1354 0
1 -1195 1347 0
1 -1356 1357 0
1 -1350 1358 0
1 1359 -1348 0
1 -1357 1360 0
1 1357 1356 0
1 -1357 -1198 0
1 1361 -1356 0
1 1361 1347 0
1 1212 1357 0
1 -1222 -1358 0
1 -1222 -1362 0
1 1358 -1363 0
1 -1358 1359 0
1 -1364 -1365 0
1 1364 1212 0
1 1366 1367 0
1 -1366 -1222 0
1 -1366 1212 0
1 -1368 1365 0
1 1369 -1370 0
1 -1369 -1358 0
1 1363 -1362 0
1 1362 -1360 0
1 -1370 -1371 0
1 -1370 1372 0
1 -1370 -1238 0
1 1373 1374 0
1 1373 -1365 0
1 -1373 -1375 0
1 -1374 1369 0
1 -1225 1376 0
1 1372 -1229 0
1 -1377 1378 0
1 1377 -1225 0
1 -1379 1377 0
1 -1379 1363 0
1 1379 1380 0
1 1379 -1372 0
1 -1379 1210 0
1 1381 1363 0
1 -1381 -1382 0
1 1381 1238 0
1 -1235 -1234 0
1 -1383 1236 0
1 -1384 1385 0
1 -1384 -1379 0
1 -1386 1384 0
1 -1386 -1232 0
1 1387 -1245 0
1 -1387 1235 0
1 1388 -1387 0
1 -1388 -1238 0
1 1245 1389 0
1 1245 -1390 0
1 1245 -1233 0
1 -1389 -1037 0
1 1391 1076 0
1 -1391 -1392 0
1 1393 -1394 0
1 1395 -1384 0
1 1396 -1253 0
1 -1263 -1262 0
1 -1263 -1117 0
1 -1397 -1262 0
1 1398 1257 0
1 1398 -1273 0
1 1399 1254 0
1 1257 1399 0
1 -1400 1401 0
1 -1402 -1397 0
1 -1402 -1250 0
1 1403 -1404 0
1 1403 -1275 0
1 1403 1405 0
1 -1271 1267 0
1 1406 -1275 0
1 -1276 -1407 0
1 1276 1408 0
1 -1276 -1275 0
1 1276 -1406 0
1 -1409 -1410 0
1 1409 1407 0
1 1407 1271 0
1 -1411 -1108 0
1 -1412 -1413 0
1 1414 -1415 0
1 -1416 1276 0
1 -1416 1417 0
1 -1408 -1418 0
1 -1419 -1420 0
1 1419 -1411 0
1 -1285 1286 0
1 1285 1284 0
1 1421 -1290 0
1 -1421 1285 0
1 1417 -1290 0
1 1417 1293 0
1 -1417 1422 0
1 -1417 -1416 0
1 1415 -1299 0
1 1423 -1414 0
1 -1423 -1424 0
1 1423 1285 0
1 -1425 1426 0
1 -1425 -1427 0
1 -1291 -1422 0
1 1299 -1301 0
1 -1428 -1155 0
1 1429 1430 0
1 -1430 1308 0
1 1431 1417 0
1 1422 -1417 0
1 1432 -1433 0
1 1434 -1300 0
1 -1434 1295 0
1 -1434 1297 0
1 1434 -1435 0
1 1308 -1436 0
1 -1308 -1437 0
1 1438 -1433 0
1 -1438 1439 0
1 -1440 1441 0
1 -1442 -1443 0
1 -1442 1444 0
1 1442 1445 0
1 1442 -1438 0
1 1446 1440 0
1 -1446 -1296 0
1 -1446 1447 0
1 1448 1449 0
1 1448 1440 0
1 1448 1450 0
1 1451 -1437 0
1 1451 -1316 0
1 -1437 -1448 0
1 -1437 1295 0
1 -1437 -1452 0
1 1437 1453 0
1 1436 1294 0
1 -1436 -1454 0
1 -1450 -1438 0
1 1455 1437 0
1 1455 1143 0
1 1456 -1457 0
1 -1456 1309 0
1 1458 1459 0
1 1458 1175 0
1 -1460 -1455 0
1 1460 -1320 0
1 1460 1461 0
1 -1462 -1458 0
1 -1462 1459 0
1 1457 -1459 0
1 -1463 1464 0
1 -1320 -1460 0
1 -1327 -1313 0
1 1327 -1465 0
1 -1327 1460 0
1 1327 -1466 0
1 -1467 1462 0
1 -1467 1468 0
1 -1467 1460 0
1 1469 -1470 0
1 -1469 -1471 0
1 1311 -1320 0
1 -1472 -1327 0
1 1313 1473 0
1 -1474 -1475 0
1 -1475 -1473 0
1 1475 1465 0
1 1471 1469 0
1 1471 -1324 0
1 1470 1170 0
1 -1466 1476 0
1 -1466 -1471 0
1 -1477 1467 0
1 1478 1333 0
1 1478 -1334 0
1 -1333 -1479 0
1 -1480 1319 0
1 1480 -1479 0
1 -1480 -1481 0
1 1324 -1482 0
1 1326 1482 0
1 -1326 -1483 0
1 1326 -1478 0
1 -1484 1480 0
1 1484 1471 0
1 1484 1164 0
1 -1479 1485 0
1 1479 -1480 0
1 -1345 1186 0
1 1482 1339 0
1 -1486 1346 0
1 -1346 -1487 0
1 -1346 -1326 0
1 -1488 1489 0
1 -1490 1491 0
1 1343 -1492 0
1 1493 -1337 0
1 1494 1350 0
1 -1494 1495 0
1 1354 -1496 0
1 1354 1495 0
1 -1492 -1493 0
1 1497 -1355 0
1 -1495 -1498 0
1 1495 1343 0
1 1355 1499 0
1 1355 1500 0
1 1355 -1351 0
1 -1501 -1502 0
1 1503 -1492 0
1 -1504 -1505 0
1 -1504 -1506 0
1 1500 -1505 0
1 -1500 1503 0
1 -1500 -1507 0
1 1500 -1501 0
1 1506 -1368 0
1 -1506 -1366 0
1 1506 1508 0
1 -1367 1344 0
1 -1509 1510 0
1 1509 1508 0
1 -1511 1512 0
1 -1512 1506 0
1 -1513 -1503 0
1 1513 1512 0
1 -1513 -1367 0
1 -1353 -1367 0
1 1353 1514 0
1 1508 -1509 0
1 1508 1514 0
1 1515 -1513 0
1 -1515 -1512 0
1 1515 -1366 0
1 -1365 1358 0
1 1365 -1373 0
1 -1516 1517 0
1 -1518 1519 0
1 1520 -1509 0
1 1520 1521 0
1 1510 1522 0
1 -1510 -1516 0
1 -1375 1517 0
1 1375 -1523 0
1 -1375 1376 0
1 1382 -1524 0
1 1525 -1526 0
1 1527 -1528 0
1 1523 -1392 0
1 1523 1375 0
1 -1529 -1530 0
1 1531 -1529 0
1 1528 1523 0
1 1528 -1376 0
1 1392 1532 0
1 -1533 -1534 0
1 1420 1535 0
1 -1420 -1401 0
1 1420 1536 0
1 -1537 -1410 0
1 -1538 1539 0
1 1538 -1401 0
1 1536 -1426 0
1 -1535 -1540 0
1 1418 -1541 0
1 1426 1539 0
1 -1426 -1428 0
1 1426 1427 0
1 1427 1542 0
1 1427 -1425 0
1 -1427 -1543 0
1 1410 -1544 0
1 1539 1410 0
1 -1539 1545 0
1 -1543 -1537 0
1 -1546 1547 0
1 -1424 -1539 0
1 -1435 1542 0
1 1435 1548 0
1 1435 1422 0
1 -1549 -1539 0
1 -1549 1410 0
1 -1545 -1410 0
1 1550 -1549 0
1 1550 1545 0
1 1542 1551 0
1 1542 1541 0
1 -1542 1552 0
1 1553 1550 0
1 1553 -1431 0
1 1447 -1442 0
1 1447 -1547 0
1 1444 -1551 0
1 1554 1442 0
1 1555 -1443 0
1 1556 1423 0
1 -1557 -1552 0
1 -1558 -1559 0
1 1558 -1444 0
1 -1558 -1560 0
1 -1558 -1545 0
1 -1441 1561 0
1 1562 1450 0
1 1561 -1443 0
1 -1563 -1562 0
1 1563 -1452 0
1 -1452 1463 0
1 1468 -1564 0
1 1565 -1566 0
1 1567 -1568 0
1 1569 1567 0
1 -1569 -1468 0
1 -1570 -1462 0
1 1570 -1313 0
1 1570 1473 0
1 -1570 1457 0
1 -1570 -1571 0
1 -1473 1462 0
1 1572 1573 0
1 1572 -1471 0
1 1574 -1575 0
1 -1574 -1576 0
1 1453 1577 0
1 1453 1578 0
1 -1564 -1453 0
1 -1564 1481 0
1 -1573 1579 0
1 -1573 -1576 0
1 -1576 -1450 0
1 -1576 -1573 0
1 1578 1313 0
1 -1578 -1564 0
1 -1577 -1453 0
1 1577 -1469 0
1 -1481 -1564 0
1 1461 -1476 0
1 1461 1580 0
1 -1461 -1581 0
1 -1461 -1582 0
1 -1580 1462 0
1 -1580 1577 0
1 -1580 1583 0
1 -1584 1574 0
1 1584 -1572 0
1 -1585 -1586 0
1 1585 1484 0
1 1476 -1466 0
1 -1581 -1484 0
1 -1587 -1476 0
1 1587 1586 0
1 1588 1581 0
1 1588 1589 0
1 1491 -1590 0
1 1491 1591 0
1 1591 -1490 0
1 1591 -1479 0
1 1592 -1593 0
1 1593 -1594 0
1 1593 1595 0
1 1596 1491 0
1 -1597 -1491 0
1 1597 1598 0
1 1597 -1593 0
1 -1597 -1599 0
1 -1600 -1593 0
1 1600 -1599 0
1 -1601 -1602 0
1 -1601 -1603 0
1 1604 -1496 0
1 -1604 1597 0
1 -1604 -1495 0
1 1605 1483 0
1 1605 -1598 0
1 1595 -1606 0
1 1483 1607 0
1 -1483 -1498 0
1 1608 1598 0
1 1608 -1593 0
1 1609 -1489 0
1 -1609 -1610 0
1 1610 -1367 0
1 -1607 -1502 0
1 1607 1500 0
1 -1507 1611 0
1 -1612 -1613 0
1 1614 1615 0
1 1614 1616 0
1 -1617 -1618 0
1 1617 1504 0
1 -1617 1365 0
1 1617 1489 0
1 -1619 -1518 0
1 -1619 -1611 0
1 1619 -1508 0
1 1618 -1620 0
1 1618 1522 0
1 1621 -1514 0
1 -1611 1622 0
1 -1611 1615 0
1 1623 -1624 0
1 -1524 -1625 0
1 1522 -1618 0
1 -1522 1626 0
1 -1522 -1627 0
1 1628 -1519 0
1 -1628 1629 0
1 -1625 1521 0
1 -1630 1522 0
1 -1631 1620 0
1 1631 -1628 0
1 1624 -1632 0
1 1624 -1619 0
1 1624 1514 0
1 -1633 -1519 0
1 1521 -1625 0
1 1530 1629 0
1 1530 -1630 0
1 -1534 -1634 0
1 -1626 -1534 0
1 1627 1633 0
1 -1635 1636 0
1 -1547 -1637 0
1 1547 1636 0
1 1547 -1546 0
1 -1551 -1638 0
1 1639 -1636 0
1 -1639 -1554 0
1 -1640 1551 0
1 -1640 1641 0
1 -1636 1642 0
1 -1636 -1639 0
1 1637 1535 0
1 1643 -1644 0
1 1643 1645 0
1 1643 -1646 0
1 -1638 1551 0
1 -1638 -1644 0
1 1638 -1641 0
1 -1647 1551 0
1 1647 1641 0
1 1647 1639 0
1 1648 -1649 0
1 -1648 -1638 0
1 1650 1649 0
1 1650 1651 0
1 1650 1452 0
1 -1646 1652 0
1 -1646 -1651 0
1 -1646 1560 0
1 -1644 -1653 0
1 -1653 -1654 0
1 -1653 1655 0
1 -1651 -1644 0
1 -1651 -1655 0
1 -1656 -1548 0
1 -1656 -1655 0
1 -1652 -1641 0
1 1571 -1657 0
1 -1571 1567 0
1 1571 -1658 0
1 1571 -1563 0
1 -1658 1567 0
1 1658 1659 0
1 -1660 1653 0
1 -1575 -1569 0
1 1659 1661 0
1 -1662 -1571 0
1 1560 1644 0
1 1560 1660 0
1 1663 1565 0
1 1568 -1664 0
1 -1568 -1569 0
1 -1568 -1663 0
1 1579 -1659 0
1 1579 1661 0
1 -1664 1665 0
1 -1664 1666 0
1 1667 -1668 0
1 -1667 -1669 0
1 1670 -1671 0
1 1670 1672 0
1 -1671 1666 0
1 -1673 1573 0
1 -1673 1576 0
1 -1665 -1674 0
1 1665 1576 0
1 1665 -1564 0
1 1675 1676 0
1 1675 -1677 0
1 1675 -1678 0
1 1679 -1680 0
1 1679 1681 0
1 -1682 1675 0
1 1683 1665 0
1 1683 -1579 0
1 1683 1680 0
1 -1683 -1675 0
1 -1674 -1684 0
1 1590 -1679 0
1 -1590 1584 0
1 -1590 -1682 0
1 1590 -1583 0
1 -1685 1686 0
1 1685 -1589 0
1 1685 -1687 0
1 1681 -1589 0
1 1676 -1685 0
1 1676 -1688 0
1 1676 -1583 0
1 1677 -1590 0
1 1677 1564 0
1 1689 1690 0
1 1689 -1600 0
1 1689 -1677 0
1 -1603 1691 0
1 1603 -1605 0
1 1688 -1690 0
1 1690 -1602 0
1 1690 1685 0
1 -1692 -1691 0
1 -1692 1693 0
1 -1691 -1603 0
1 1691 -1688 0
1 1694 -1601 0
1 1694 -1695 0
1 -1696 -1697 0
1 1695 1696 0
1 1695 -1698 0
1 1695 -1586 0
1 -1697 1616 0
1 1697 1699 0
1 -1700 1603 0
1 1701 1698 0
1 1701 1694 0
1 1702 -1703 0
1 -1702 1704 0
1 1705 1706 0
1 -1699 -1707 0
1 -1699 1708 0
1 -1616 1697 0
1 1616 1709 0
1 1616 -1710 0
1 -1708 1703 0
1 1708 1711 0
1 -1703 -1622 0
1 1703 1615 0
1 1704 -1712 0
1 -1704 1713 0
1 1706 -1696 0
1 -1706 -1601 0
1 1706 -1714 0
1 1711 -1715 0
1 -1615 1703 0
1 -1615 -1708 0
1 1716 -1606 0
1 -1716 1717 0
1 1716 1622 0
1 -1622 1710 0
1 1622 1718 0
1 -1606 -1719 0
1 1606 -1711 0
1 -1710 -1720 0
1 -1721 1622 0
1 1709 1722 0
1 -1719 1723 0
1 -1719 -1633 0
1 -1719 1713 0
1 -1620 -1613 0
1 -1720 -1530 0
1 1632 1710 0
1 -1632 -1718 0
1 1724 1719 0
1 1723 1489 0
1 -1613 -1720 0
1 1718 1620 0
1 1725 1647 0
1 -1726 -1727 0
1 1726 1645 0
1 1727 -1728 0
1 -1727 1645 0
1 1727 -1656 0
1 1729 1730 0
1 -1729 -1654 0
1 1728 1655 0
1 1655 1654 0
1 -1655 -1731 0
1 1654 -1728 0
1 -1654 -1732 0
1 -1654 -1651 0
1 1733 1734 0
1 1733 -1732 0
1 1730 -1560 0
1 -1735 1736 0
1 -1732 1736 0
1 -1731 1727 0
1 -1672 -1737 0
1 -1737 -1662 0
1 1737 -1665 0
1 -1737 1672 0
1 -1738 -1739 0
1 -1738 -1740 0
1 -1739 -1735 0
1 -1739 -1671 0
1 1739 -1741 0
1 -1741 1739 0
1 1734 1672 0
1 1668 -1664 0
1 1666 1740 0
1 1666 -1667 0
1 -1742 1674 0
1 1743 1744 0
1 1745 -1746 0
1 1747 -1748 0
1 -1740 -1749 0
1 1740 1738 0
1 1740 1743 0
1 1680 1679 0
1 -1680 -1745 0
1 -1680 -1687 0
1 1750 1682 0
1 -1750 -1751 0
1 1750 -1680 0
1 -1750 -1669 0
1 1752 -1753 0
1 -1751 1742 0
1 1669 1754 0
1 -1669 1755 0
1 1744 1670 0
1 1744 1756 0
1 1744 1757 0
1 -1758 1759 0
1 -1758 1750 0
1 -1758 1743 0
1 1693 1676 0
1 -1693 -1755 0
1 -1693 -1669 0
1 -1755 -1686 0
1 -1755 -1692 0
1 1760 1761 0
1 1754 -1762 0
1 1762 1763 0
1 -1764 -1707 0
1 1764 -1765 0
1 -1761 -1683 0
1 -1766 1690 0
1 -1766 -1767 0
1 1707 -1768 0
1 -1769 -1770 0
1 1769 -1771 0
1 1769 1772 0
1 1769 -1700 0
1 -1767 1760 0
1 1767 1714 0
1 -1768 -1766 0
1 -1771 1760 0
1 1771 -1773 0
1 1774 -1754 0
1 1715 1770 0
1 1715 -1695 0
1 -1715 1704 0
1 1714 1775 0
1 1714 1776 0
1 -1714 1767 0
1 1714 -1704 0
1 1714 1716 0
1 1714 -1768 0
1 -1777 1712 0
1 -1778 1779 0
1 1778 -1780 0
1 1778 1781 0
1 1713 -1709 0
1 1782 -1706 0
1 1783 1770 0
1 1784 -1714 0
1 -1776 -1782 0
1 -1785 -1731 0
1 -1786 1734 0
1 1786 -1787 0
1 -1787 1786 0
1 1787 -1788 0
1 1789 -1729 0
1 1789 -1787 0
1 1789 -1785 0
1 1790 1785 0
1 1749 -1791 0
1 -1749 -1734 0
1 1792 1747 0
1 -1793 -1753 0
1 -1791 1794 0
1 1791 -1795 0
1 -1791 -1757 0
1 -1757 -1748 0
1 -1796 1744 0
1 -1796 1746 0
1 -1796 1797 0
1 -1795 1798 0
1 1799 1800 0
1 -1799 -1772 0
1 -1799 1793 0
1 1798 -1748 0
1 1798 1772 0
1 1801 -1802 0
1 1801 1803 0
1 -1801 1804 0
1 1805 1806 0
1 -1800 1669 0
1 1800 1684 0
1 1759 1807 0
1 -1759 1800 0
1 1759 1744 0
1 1759 1751 0
1 1759 -1684 0
1 1759 -1799 0
1 1808 1772 0
1 -1772 1809 0
1 1772 -1798 0
1 1809 -1773 0
1 1809 -1795 0
1 1746 1808 0
1 1746 -1810 0
1 1746 -1811 0
1 1746 1773 0
1 -1746 1812 0
1 1807 1808 0
1 1807 1796 0
1 -1813 -1814 0
1 1813 -1796 0
1 -1813 -1815 0
1 -1813 -1803 0
1 -1765 -1771 0
1 -1773 1816 0
1 -1817 -1818 0
1 1811 1763 0
1 1819 1779 0
1 1818 1808 0
1 -1818 1820 0
1 1756 -1811 0
1 1756 1773 0
1 1756 -1817 0
1 1816 -1756 0
1 1820 1771 0
1 1779 1819 0
1 1779 1821 0
1 -1781 -1822 0
1 -1823 1781 0
1 -1824 -1821 0
1 -1821 1781 0
1 1825 -1826 0
1 1827 -1802 0
1 1827 1803 0
1 1827 -1804 0
1 1828 -1829 0
1 1814 -1827 0
1 1814 -1830 0
1 1815 -1831 0
1 1812 1813 0
1 1812 1820 0
1 1812 -1832 0
1 -1833 1781 0
1 -1834 1835 0
1 -1806 -1815 0
